row=8;
column=8;
Board=[|1,5,7,0,0,0,0,0|0,1,4,0,5,0,2,0|0,0,0,0,0,0,0,0|7,0,0,0,0,0,0,2|0,3,0,8,0,0,7,1|3,4,0,1,7,0,5,0|0,8,6,7,0,0,4,0|0,0,0,4,0,5,0,7|];
OE=[|1,1,1,0,0,1,0,0|0,1,0,1,1,1,0,0|0,1,1,0,0,0,1,1|1,0,1,1,0,1,0,0|0,1,1,0,0,0,1,1|1,0,0,1,1,0,1,0|1,0,0,1,1,0,0,1|0,0,0,0,1,1,1,1|];
